************************************************************************
file with basedata            : mm13_.bas
initial value random generator: 1378115193
************************************************************************
projects                      :  1
jobs (incl. supersource/sink ):  12
horizon                       :  79
RESOURCES
  - renewable                 :  2   R
  - nonrenewable              :  2   N
  - doubly constrained        :  0   D
************************************************************************
PROJECT INFORMATION:
pronr.  #jobs rel.date duedate tardcost  MPM-Time
    1     10      0       10        4       10
************************************************************************
PRECEDENCE RELATIONS:
jobnr.    #modes  #successors   successors
   1        1          3           2   3   4
   2        3          2           5   6
   3        3          1           9
   4        3          3           7   8  10
   5        3          1          10
   6        3          2           9  10
   7        3          2           9  11
   8        3          1          11
   9        3          1          12
  10        3          1          12
  11        3          1          12
  12        1          0        
************************************************************************
REQUESTS/DURATIONS:
jobnr. mode duration  R 1  R 2  N 1  N 2
------------------------------------------------------------------------
  1      1     0       0    0    0    0
  2      1     4       0    2    5    8
         2     5       0    1    3    6
         3     7       2    0    1    4
  3      1     4       0    7    7    6
         2     8       0    4    7    6
         3     9       0    3    6    5
  4      1     2       7    0   10    4
         2     4       7    0    7    4
         3    10       6    0    7    3
  5      1     1       0    4    8    7
         2     1       0    4    7    8
         3     3       0    2    2    4
  6      1     1       7    0    5    9
         2     6       0    6    5    7
         3     7       0    5    2    5
  7      1     4       0    6    8    7
         2    10       0    5    1    2
         3    10       0    4    3    1
  8      1     1       8    0    7    7
         2     5       0    5    4    5
         3     6       0    3    3    3
  9      1     1       6    0    8    7
         2     9       1    0    7    5
         3     9       0    4    7    5
 10      1     4       0    4    8    4
         2     6       0    2    7    4
         3     8      10    0    6    3
 11      1     4       6    0    5    9
         2     7       4    0    4    8
         3    10       0    1    3    7
 12      1     0       0    0    0    0
************************************************************************
RESOURCEAVAILABILITIES:
  R 1  R 2  N 1  N 2
   14   13   45   46
************************************************************************
MAXIMAL LAGS:
from  to  type  delay
    1   12   ES      0
    1    2   ES      0
    2   12   ES      0
    1    3   ES      0
    3   12   ES      0
    1    4   ES      0
    4   12   ES      0
    1    5   ES      0
    5   12   ES      0
    1    6   ES      0
    6   12   ES      0
    1    7   ES      0
    7   12   ES      0
    1    8   ES      0
    8   12   ES      0
    1    9   ES      0
    9   12   ES      0
    1   10   ES      0
   10   12   ES      0
    1   11   ES      0
   11   12   ES      0
    1   12   ES      0
    2    5   SS      3
    2    5   SE      4
    2    5   ES      9
    2    5   EE     -3
    2    6   SS    -11
    2    6   SE     -5
    6    2   SE      0
    2    6   ES      0
    2    6   EE      7
    3    9   SS    -11
    3    9   SE    -12
    3    9   ES     -6
    3    9   EE     -3
    4    7   SS     -6
    4    7   SE     12
    4    7   ES     -8
    4    7   EE     12
    4    8   SS     -4
    4    8   SE     -3
    4    8   ES     -2
    4    8   EE     -9
    4   10   SS    -12
    4   10   SE      3
    4   10   ES     11
    4   10   EE      1
    5   10   SS     -7
    5   10   SE     -8
    5   10   ES      0
    5   10   EE      5
    6    9   SS     10
    6    9   SE     -5
    6    9   ES      4
    6    9   EE      5
    6   10   SS      9
    6   10   SE     -1
    6   10   ES    -10
    6   10   EE      0
    7    9   SS     11
    7    9   SE    -11
    7    9   ES      1
    7    9   EE    -12
    7   11   SS      2
    7   11   SE    -10
    7   11   ES     -2
    7   11   EE      6
    8   11   SS      1
    8   11   SE      6
    8   11   ES      0
    8   11   EE     10
************************************************************************
